25 25
19
3 3 13 0
3 4 16 0
3 5 22 6
3 6 22 0
3 7 19 18
3 8 0 0
3 9 10 0
3 10 16 4
3 11 16 14
3 13 10 9
3 14 22 11
3 17 0 8
3 18 19 0
3 19 13 3
3 25 3 0
4 5 6 0
4 7 6 5
4 13 6 12
6 3 10 22
----------
==========
